solution status: optimal solution found
objective value:                     191358.920084036
d11(0,0)                                            1 	(obj:0)
d11(1,1)                                            1 	(obj:0)
d11(2,4)                                            1 	(obj:0)
d11(2,5)                                            1 	(obj:0)
d11(2,7)                                            1 	(obj:0)
d11(2,8)                                            1 	(obj:0)
d11(2,10)                                           1 	(obj:0)
d11(2,11)                                           1 	(obj:0)
d11(2,12)                                           1 	(obj:0)
d11(3,13)                                           1 	(obj:0)
d11(3,14)                                           1 	(obj:0)
d11(3,16)                                           1 	(obj:0)
d11(3,17)                                           1 	(obj:0)
d11(3,18)                                           1 	(obj:0)
d11(3,19)                                           1 	(obj:0)
d11(3,20)                                           1 	(obj:0)
d11(3,21)                                           1 	(obj:0)
d11(3,22)                                           1 	(obj:0)
d11(3,23)                                           1 	(obj:0)
d11(3,24)                                           1 	(obj:0)
d11(3,25)                                           1 	(obj:0)
d11(3,26)                                           1 	(obj:0)
d11(3,28)                                           1 	(obj:0)
d11(3,29)                                           1 	(obj:0)
d11(3,31)                                           1 	(obj:0)
d11(3,32)                                           1 	(obj:0)
d11(3,34)                                           1 	(obj:0)
d11(3,35)                                           1 	(obj:0)
d11(3,37)                                           1 	(obj:0)
d11(3,38)                                           1 	(obj:0)
d11(3,39)                                           1 	(obj:0)
d11(4,40)                                           1 	(obj:0)
d11(4,41)                                           1 	(obj:0)
d11(4,42)                                           1 	(obj:0)
d11(4,43)                                           1 	(obj:0)
d11(4,44)                                           1 	(obj:0)
d11(4,45)                                           1 	(obj:0)
d11(4,46)                                           1 	(obj:0)
d11(4,47)                                           1 	(obj:0)
d11(4,48)                                           1 	(obj:0)
d11(4,49)                                           1 	(obj:0)
d11(4,50)                                           1 	(obj:0)
d11(4,51)                                           1 	(obj:0)
d11(4,52)                                           1 	(obj:0)
d11(4,53)                                           1 	(obj:0)
d11(4,54)                                           1 	(obj:0)
d11(4,55)                                           1 	(obj:0)
d11(4,56)                                           1 	(obj:0)
d11(4,57)                                           1 	(obj:0)
d11(4,58)                                           1 	(obj:0)
d11(4,59)                                           1 	(obj:0)
d11(4,60)                                           1 	(obj:0)
d11(4,61)                                           1 	(obj:0)
d11(4,62)                                           1 	(obj:0)
d11(4,63)                                           1 	(obj:0)
d11(4,64)                                           1 	(obj:0)
d11(4,65)                                           1 	(obj:0)
d11(4,66)                                           1 	(obj:0)
d11(4,67)                                           1 	(obj:0)
d11(4,68)                                           1 	(obj:0)
d11(4,69)                                           1 	(obj:0)
d11(4,70)                                           1 	(obj:0)
d11(4,71)                                           1 	(obj:0)
d11(4,72)                                           1 	(obj:0)
d11(4,73)                                           1 	(obj:0)
d11(4,74)                                           1 	(obj:0)
d11(4,75)                                           1 	(obj:0)
d11(4,76)                                           1 	(obj:0)
d11(4,77)                                           1 	(obj:0)
d11(4,78)                                           1 	(obj:0)
d11(4,79)                                           1 	(obj:0)
d11(4,80)                                           1 	(obj:0)
d11(4,81)                                           1 	(obj:0)
d11(4,82)                                           1 	(obj:0)
d11(4,83)                                           1 	(obj:0)
d11(4,84)                                           1 	(obj:0)
d11(4,85)                                           1 	(obj:0)
d11(4,86)                                           1 	(obj:0)
d11(4,87)                                           1 	(obj:0)
d11(4,88)                                           1 	(obj:0)
d11(4,89)                                           1 	(obj:0)
d11(4,90)                                           1 	(obj:0)
d11(4,91)                                           1 	(obj:0)
d11(4,92)                                           1 	(obj:0)
d11(4,93)                                           1 	(obj:0)
d11(4,94)                                           1 	(obj:0)
d11(4,95)                                           1 	(obj:0)
d11(4,96)                                           1 	(obj:0)
d11(4,97)                                           1 	(obj:0)
d11(4,98)                                           1 	(obj:0)
d11(4,99)                                           1 	(obj:0)
d11(4,100)                                          1 	(obj:0)
d11(4,101)                                          1 	(obj:0)
d11(4,102)                                          1 	(obj:0)
d11(4,103)                                          1 	(obj:0)
d11(4,104)                                          1 	(obj:0)
d11(4,105)                                          1 	(obj:0)
d11(4,106)                                          1 	(obj:0)
d11(4,107)                                          1 	(obj:0)
d11(4,108)                                          1 	(obj:0)
d11(4,109)                                          1 	(obj:0)
d11(4,110)                                          1 	(obj:0)
d11(4,111)                                          1 	(obj:0)
d11(4,112)                                          1 	(obj:0)
d11(4,113)                                          1 	(obj:0)
d11(4,114)                                          1 	(obj:0)
d11(4,115)                                          1 	(obj:0)
d11(4,116)                                          1 	(obj:0)
d11(4,117)                                          1 	(obj:0)
d11(4,118)                                          1 	(obj:0)
d11(4,119)                                          1 	(obj:0)
d11(4,120)                                          1 	(obj:0)
d12(1,2)                                            1 	(obj:0)
d12(1,3)                                            1 	(obj:0)
d21(4,40)                                           1 	(obj:0)
d21(4,41)                                           1 	(obj:0)
d21(4,42)                                           1 	(obj:0)
d21(4,43)                                           1 	(obj:0)
d21(4,44)                                           1 	(obj:0)
d21(4,45)                                           1 	(obj:0)
d21(4,46)                                           1 	(obj:0)
d21(4,47)                                           1 	(obj:0)
d21(4,49)                                           1 	(obj:0)
d21(4,50)                                           1 	(obj:0)
d21(4,51)                                           1 	(obj:0)
d21(4,52)                                           1 	(obj:0)
d21(4,53)                                           1 	(obj:0)
d21(4,55)                                           1 	(obj:0)
d21(4,58)                                           1 	(obj:0)
d21(4,59)                                           1 	(obj:0)
d21(4,61)                                           1 	(obj:0)
d21(4,67)                                           1 	(obj:0)
d21(4,68)                                           1 	(obj:0)
d21(4,69)                                           1 	(obj:0)
d21(4,70)                                           1 	(obj:0)
d21(4,71)                                           1 	(obj:0)
d21(4,73)                                           1 	(obj:0)
d21(4,76)                                           1 	(obj:0)
d21(4,77)                                           1 	(obj:0)
d21(4,79)                                           1 	(obj:0)
d21(4,80)                                           1 	(obj:0)
d21(4,85)                                           1 	(obj:0)
d21(4,94)                                           1 	(obj:0)
d21(4,95)                                           1 	(obj:0)
d21(4,97)                                           1 	(obj:0)
d21(4,98)                                           1 	(obj:0)
d21(4,103)                                          1 	(obj:0)
d21(4,104)                                          1 	(obj:0)
d21(4,106)                                          1 	(obj:0)
STE(1,1)                             10739.4733430719 	(obj:0)
STE(0,0)                                        12600 	(obj:0)
STE(1,2)                                        11592 	(obj:0)
STE(1,3)                               12632.92163385 	(obj:0)
STE(2,4)                             7517.25513640528 	(obj:0)
STE(2,5)                             8514.02113973857 	(obj:0)
STE(2,6)                             9731.47334307194 	(obj:0)
STE(2,7)                             8369.78179333334 	(obj:0)
STE(2,8)                             9366.54779666663 	(obj:0)
STE(2,9)                                        10584 	(obj:0)
STE(2,10)                            9410.70342718338 	(obj:0)
STE(2,11)                            10407.4694305167 	(obj:0)
STE(2,12)                              11624.92163385 	(obj:0)
STE(3,13)                             4295.0369297386 	(obj:0)
STE(3,14)                            5291.80293307189 	(obj:0)
STE(3,15)                            6509.25513640528 	(obj:0)
STE(3,16)                            5291.80293307189 	(obj:0)
STE(3,17)                            6288.56893640518 	(obj:0)
STE(3,18)                            7506.02113973857 	(obj:0)
STE(3,19)                            6509.25513640525 	(obj:0)
STE(3,20)                            7506.02113973854 	(obj:0)
STE(3,21)                            8723.47334307194 	(obj:0)
STE(3,22)                            5147.56358666666 	(obj:0)
STE(3,23)                            6144.32958999995 	(obj:0)
STE(3,24)                            7361.78179333334 	(obj:0)
STE(3,25)                            6144.32958999995 	(obj:0)
STE(3,26)                            7141.09559333324 	(obj:0)
STE(3,27)                            8358.54779666663 	(obj:0)
STE(3,28)                            7361.78179333332 	(obj:0)
STE(3,29)                            8358.54779666661 	(obj:0)
STE(3,30)                                        9576 	(obj:0)
STE(3,31)                             6188.4852205167 	(obj:0)
STE(3,32)                            7185.25122384999 	(obj:0)
STE(3,33)                            8402.70342718338 	(obj:0)
STE(3,34)                            7185.25122384999 	(obj:0)
STE(3,35)                            8182.01722718328 	(obj:0)
STE(3,36)                            9399.46943051667 	(obj:0)
STE(3,37)                            8402.70342718336 	(obj:0)
STE(3,38)                            9399.46943051665 	(obj:0)
STE(3,39)                              10616.92163385 	(obj:0)
STE(4,40)                           -1543.51086692802 	(obj:0)
STE(4,41)                            -546.74486359473 	(obj:0)
STE(4,42)                            670.707339738648 	(obj:0)
STE(4,43)                           -546.744863594731 	(obj:0)
STE(4,44)                             450.02113973856 	(obj:0)
STE(4,45)                            1667.47334307194 	(obj:0)
STE(4,46)                            670.707339738661 	(obj:0)
STE(4,47)                            1667.47334307195 	(obj:0)
STE(4,48)                            2884.92554640533 	(obj:0)
STE(4,49)                           -546.744863594732 	(obj:0)
STE(4,50)                            450.021139738559 	(obj:0)
STE(4,51)                            1667.47334307194 	(obj:0)
STE(4,52)                            450.021139738559 	(obj:0)
STE(4,53)                            1446.78714307185 	(obj:0)
STE(4,54)                            2664.23934640523 	(obj:0)
STE(4,55)                            1667.47334307195 	(obj:0)
STE(4,56)                            2664.23934640524 	(obj:0)
STE(4,57)                            3881.69154973862 	(obj:0)
STE(4,58)                            670.707339738632 	(obj:0)
STE(4,59)                            1667.47334307192 	(obj:0)
STE(4,60)                             2884.9255464053 	(obj:0)
STE(4,61)                            1667.47334307192 	(obj:0)
STE(4,62)                            2664.23934640521 	(obj:0)
STE(4,63)                            3881.69154973859 	(obj:0)
STE(4,64)                            2884.92554640531 	(obj:0)
STE(4,65)                            3881.69154973861 	(obj:0)
STE(4,66)                            5099.14375307198 	(obj:0)
STE(4,67)                           -690.984209999959 	(obj:0)
STE(4,68)                            305.781793333331 	(obj:0)
STE(4,69)                            1523.23399666671 	(obj:0)
STE(4,70)                            305.781793333331 	(obj:0)
STE(4,71)                            1302.54779666662 	(obj:0)
STE(4,72)                                        2520 	(obj:0)
STE(4,73)                            1523.23399666672 	(obj:0)
STE(4,74)                            2520.00000000001 	(obj:0)
STE(4,75)                            3737.45220333339 	(obj:0)
STE(4,76)                            305.781793333331 	(obj:0)
STE(4,77)                            1302.54779666662 	(obj:0)
STE(4,78)                                        2520 	(obj:0)
STE(4,79)                            1302.54779666662 	(obj:0)
STE(4,80)                            2299.31379999991 	(obj:0)
STE(4,81)                            3516.76600333329 	(obj:0)
STE(4,82)                            2520.00000000001 	(obj:0)
STE(4,83)                            3516.76600333331 	(obj:0)
STE(4,84)                            4734.21820666668 	(obj:0)
STE(4,85)                             1523.2339966667 	(obj:0)
STE(4,86)                            2519.99999999999 	(obj:0)
STE(4,87)                            3737.45220333337 	(obj:0)
STE(4,88)                            2519.99999999999 	(obj:0)
STE(4,89)                            3516.76600333328 	(obj:0)
STE(4,90)                            4734.21820666666 	(obj:0)
STE(4,91)                            3737.45220333338 	(obj:0)
STE(4,92)                            4734.21820666667 	(obj:0)
STE(4,93)                            5951.67041000005 	(obj:0)
STE(4,94)                            349.937423850079 	(obj:0)
STE(4,95)                            1346.70342718337 	(obj:0)
STE(4,96)                            2564.15563051675 	(obj:0)
STE(4,97)                            1346.70342718337 	(obj:0)
STE(4,98)                            2343.46943051666 	(obj:0)
STE(4,99)                            3560.92163385004 	(obj:0)
STE(4,100)                           2564.15563051676 	(obj:0)
STE(4,101)                           3560.92163385005 	(obj:0)
STE(4,102)                           4778.37383718343 	(obj:0)
STE(4,103)                           1346.70342718337 	(obj:0)
STE(4,104)                           2343.46943051671 	(obj:0)
STE(4,105)                           3560.92163385004 	(obj:0)
STE(4,106)                           2343.46943051666 	(obj:0)
STE(4,107)                           3340.23543384995 	(obj:0)
STE(4,108)                           4557.68763718333 	(obj:0)
STE(4,109)                           3560.92163385005 	(obj:0)
STE(4,110)                           4557.68763718335 	(obj:0)
STE(4,111)                           5775.13984051672 	(obj:0)
STE(4,112)                           2564.15563051674 	(obj:0)
STE(4,113)                           3560.92163385003 	(obj:0)
STE(4,114)                            4778.3738371834 	(obj:0)
STE(4,115)                           3560.92163385003 	(obj:0)
STE(4,116)                           4557.68763718332 	(obj:0)
STE(4,117)                            5775.1398405167 	(obj:0)
STE(4,118)                           4778.37383718342 	(obj:0)
STE(4,119)                           5775.13984051671 	(obj:0)
STE(4,120)                           6992.59204385009 	(obj:0)
y1(4,100)                            4347.49301699996 	(obj:0)
y1(4,101)                                 3450.403614 	(obj:0)
y1(4,102)                            2354.69663099996 	(obj:0)
y1(4,103)                            4347.49301699996 	(obj:0)
y1(4,104)                            3450.40361399995 	(obj:0)
y1(4,105)                            2354.69663099996 	(obj:0)
y1(4,106)                            4347.49301699996 	(obj:0)
y1(4,107)                                 3450.403614 	(obj:0)
y1(4,108)                            2354.69663099996 	(obj:0)
y1(4,109)                            4347.49301699996 	(obj:0)
y1(4,110)                                 3450.403614 	(obj:0)
y1(4,111)                            2354.69663099996 	(obj:0)
y1(4,112)                            4347.49301699996 	(obj:0)
y1(4,113)                                 3450.403614 	(obj:0)
y1(4,114)                            2354.69663099996 	(obj:0)
y1(4,115)                            4347.49301699996 	(obj:0)
y1(4,116)                                 3450.403614 	(obj:0)
y1(4,117)                            2354.69663099996 	(obj:0)
y1(4,118)                            4347.49301699996 	(obj:0)
y1(4,119)                                 3450.403614 	(obj:0)
y1(4,120)                            2354.69663099996 	(obj:0)
AVE(3)                                3399.3204933139 	(obj:0)
WB(4)                                3353.21046544222 	(obj:0)
AVE(4)                               3353.21046544222 	(obj:0)
WG(3)                                 3399.3204933139 	(obj:10)
BG(1)                                 3245.3852941176 	(obj:10)
BG(2)                                4495.91834999995 	(obj:10)
BG(3)                                 1096.5978566861 	(obj:10)
BG(4)                                6898.67001428566 	(obj:10)
WB(1)                                3134.60043707458 	(obj:0)
AVE(1)                               3134.60043707458 	(obj:0)
WB(2)                                3326.45170866639 	(obj:0)
AVE(2)                               3326.45170866643 	(obj:0)
y1(1,1)                              767.273991235258 	(obj:0)
y1(2,4)                              1992.79638599999 	(obj:0)
y1(2,5)                              1095.70698300003 	(obj:0)
y1(2,7)                              1992.79638599999 	(obj:0)
y1(2,8)                              1095.70698300003 	(obj:0)
y1(2,10)                             1992.79638599999 	(obj:0)
y1(2,11)                             1095.70698300003 	(obj:0)
y1(3,13)                             1992.79638600001 	(obj:0)
y1(3,14)                             1095.70698300005 	(obj:0)
y1(3,16)                             1992.79638600001 	(obj:0)
y1(3,17)                             1095.70698300005 	(obj:0)
y1(3,19)                             1992.79638600001 	(obj:0)
y1(3,20)                             1095.70698300005 	(obj:0)
y1(3,22)                             1992.79638600001 	(obj:0)
y1(3,23)                             1095.70698300005 	(obj:0)
y1(3,25)                             1992.79638600001 	(obj:0)
y1(3,26)                             1095.70698300005 	(obj:0)
y1(3,28)                             1992.79638600001 	(obj:0)
y1(3,29)                             1095.70698300005 	(obj:0)
y1(3,31)                             1992.79638600001 	(obj:0)
y1(3,32)                             1095.70698300005 	(obj:0)
y1(3,34)                             1992.79638600001 	(obj:0)
y1(3,35)                             1095.70698300005 	(obj:0)
y1(3,37)                             1992.79638600001 	(obj:0)
y1(3,38)                             1095.70698300005 	(obj:0)
y1(4,40)                             4347.49301699996 	(obj:0)
y1(4,41)                                  3450.403614 	(obj:0)
y1(4,42)                             2354.69663099996 	(obj:0)
y1(4,43)                             4347.49301699996 	(obj:0)
y1(4,44)                                  3450.403614 	(obj:0)
y1(4,45)                             2354.69663099996 	(obj:0)
y1(4,46)                             4347.49301699996 	(obj:0)
y1(4,47)                                  3450.403614 	(obj:0)
y1(4,48)                             2354.69663099996 	(obj:0)
y1(4,49)                             4347.49301699996 	(obj:0)
y1(4,50)                                  3450.403614 	(obj:0)
y1(4,51)                             2354.69663099996 	(obj:0)
y1(4,52)                             4347.49301699996 	(obj:0)
y1(4,53)                                  3450.403614 	(obj:0)
y1(4,54)                             2354.69663099996 	(obj:0)
y1(4,55)                             4347.49301699996 	(obj:0)
y1(4,56)                                  3450.403614 	(obj:0)
y1(4,57)                             2354.69663099996 	(obj:0)
y1(4,58)                             4347.49301699996 	(obj:0)
y1(4,59)                                  3450.403614 	(obj:0)
y1(4,60)                             2354.69663099996 	(obj:0)
y1(4,61)                             4347.49301699996 	(obj:0)
y1(4,62)                                  3450.403614 	(obj:0)
y1(4,63)                             2354.69663099996 	(obj:0)
y1(4,64)                             4347.49301699996 	(obj:0)
y1(4,65)                                  3450.403614 	(obj:0)
y1(4,66)                             2354.69663099996 	(obj:0)
y1(4,67)                             4347.49301699996 	(obj:0)
y1(4,68)                                  3450.403614 	(obj:0)
y1(4,69)                             2354.69663099996 	(obj:0)
y1(4,70)                             4347.49301699996 	(obj:0)
y1(4,71)                                  3450.403614 	(obj:0)
y1(4,72)                             2354.69663099996 	(obj:0)
y1(4,73)                             4347.49301699996 	(obj:0)
y1(4,74)                                  3450.403614 	(obj:0)
y1(4,75)                             2354.69663099996 	(obj:0)
y1(4,76)                             4347.49301699996 	(obj:0)
y1(4,77)                                  3450.403614 	(obj:0)
y1(4,78)                             2354.69663099996 	(obj:0)
y1(4,79)                             4347.49301699996 	(obj:0)
y1(4,80)                                  3450.403614 	(obj:0)
y1(4,81)                             2354.69663099996 	(obj:0)
y1(4,82)                             4347.49301699996 	(obj:0)
y1(4,83)                                  3450.403614 	(obj:0)
y1(4,84)                             2354.69663099996 	(obj:0)
y1(4,85)                             4347.49301699996 	(obj:0)
y1(4,86)                                  3450.403614 	(obj:0)
y1(4,87)                             2354.69663099996 	(obj:0)
y1(4,88)                             4347.49301699996 	(obj:0)
y1(4,89)                                  3450.403614 	(obj:0)
y1(4,90)                             2354.69663099996 	(obj:0)
y1(4,91)                             4347.49301699996 	(obj:0)
y1(4,92)                                  3450.403614 	(obj:0)
y1(4,93)                             2354.69663099996 	(obj:0)
y1(4,94)                             4347.49301699996 	(obj:0)
y1(4,95)                                  3450.403614 	(obj:0)
y1(4,96)                             2354.69663099996 	(obj:0)
y1(4,97)                             4347.49301699996 	(obj:0)
y1(4,98)                                  3450.403614 	(obj:0)
y1(4,99)                             2354.69663099996 	(obj:0)
y2(1,3)                              1095.70698300004 	(obj:0)
